(declare-const a Real)
(declare-const b Real)
(declare-const c Real)
(assert (= (* a b c) 1))
(assert (> a 0))
(assert (> b 0))
(assert (> c 0))
(assert (not (<= (+ (* -2651019 (pow b 4)) (* -2033547 (pow a 4)) (* (pow (+ (* 312174 (pow a 2)) (* 9439188 a (pow b 3))) -1) (pow (+ (* 312174 b (pow a 2)) (* 9439188 a (pow b 3))) 2)) (* -5308416 (pow a (pow 3 -1)) (pow b (/ 11 3))) (* -2654208 (pow a (/ 10 3)) (pow b (/ 2 3))) (* 2895828 b (pow a 3))) 0)))
(check-sat)
(get-model)
(exit)